nApps = 208
nRes = 9
nActs = 438
nNetworks = 6

assignmentToResources = [1,3,3,3,1,2,2,3,3,1,2,3,1,2,1,1,3,2,1,1,2,1,1,1,1,2,3,2,2,1,1,2,2,1,1,2,1,1,2,1,2,2,2,2,2,2,2,3,2,2,1,3,3,2,3,3,3,3,3,3,3,2,1,3,2,3,3,3,3,3,3,2,3,1,3,2,3,3,1,3,1,2,3,1,2,1,1,1,1,3,1,1,1,1,2,2,1,2,1,1,4,4,6,6,6,4,5,5,5,5,5,6,6,6,6,5,6,6,6,6,4,4,4,5,5,4,4,6,4,4,4,4,4,4,4,5,5,5,4,4,4,4,4,4,4,4,4,5,5,5,5,5,4,4,4,4,4,5,5,5,5,5,4,5,5,5,4,4,4,4,5,4,4,5,5,5,5,5,5,5,5,6,6,5,5,4,6,6,6,6,6,6,5,5,6,6,6,6,6,6,6,5,4,6,6,6,6,5,6,6,6,6,6,6,6,5,6,4,6,6,4,6,4,5,5,4,4,4,4,4,4,4,4,6,6,6,4,5,5,4,4,5,7,6,8,5,9,4,9,6,8,4,8,5,9,6,7,5,9,6,7,4,9,6,8,4,9,5,7,4,8,4,9,5,7,6,8,5,9,4,8,6,7,4,8,4,9,6,8,4,9,5,9,4,8,5,7,9,9,7,7,7,8,7,9,9,9,7,8,7,7,8,7,7,7,8,8,8,9,8,7,9,8,8,8,9,9,9,9,8,8,9,7,7,7,8,8,8,8,9,9,8,9,9,7,7,7,7,7,8,8,8,8,8,9,9,7,9,7,8,7,7,7,8,8,8,9,9,8,9,9,7,9,9,7,7,7,9,7,7,7,9,8,7,8,8,7,7,7,7,7,8,7,7,8,7,8,8,7,9,8,7,7,7,9,7,7,8,7,7,8,7,9,7,9,7,8,9,8,8,7,7,8,9,9,8,8,9,9,8,7,7,8,9,7,7,8,8];

processingTimes = [144,128,120,88,160,120,144,112,72,128,128,168,80,160,104,120,72,168,96,72,136,136,160,104,136,128,160,128,120,120,128,128,64,128,128,120,128,152,160,144,96,144,168,112,152,104,56,152,120,144,144,120,160,128,112,128,144,112,128,144,128,160,136,80,120,136,168,136,104,96,96,112,120,48,96,128,168,128,136,112,128,136,128,120,152,112,136,120,80,128,112,128,152,128,112,136,104,120,64,72,5,5,3,5,4,500,500,3,4,4,4,4,4,500,4,500,100,4,100,4,4,4,4,500,3,4,3,500,500,5,4,4,3,3,4,500,4,3,500,4,3,500,3,3,3,3,3,4,4,3,3,500,8,4,4,3,5,4,4,4,4,13,3,16,13,4,4,500,13,500,3,4,100,3,500,3,3,3,3,5,5,4,4,4,5,3,8,3,500,4,13,500,4,4,4,5,4,3,3,3,4,500,3,13,4,4,500,9,3,3,4,3,4,3,3,5,3,5,500,4,500,3,4,3,13,4,4,500,500,13,3,3,3,3,3,3,4,500,4,500,500,3,3,3,3,5,5,3,3,3,3,3,3,4,4,3,3,4,4,4,4,4,4,3,3,500,500,3,3,4,4,500,500,500,500,500,500,3,3,5,5,5,5,3,3,3,3,3,3,5,5,4,4,4,4,4,4,5,5,3,5,4,500,500,3,4,4,4,4,4,500,4,500,100,4,100,4,4,4,4,500,3,4,3,500,500,5,4,4,3,3,4,500,4,3,500,4,3,500,3,3,3,3,3,4,4,3,3,500,8,4,4,3,5,4,4,4,4,13,3,16,13,4,4,500,13,500,3,4,100,3,500,3,3,3,3,5,5,4,4,4,5,3,8,3,500,4,13,500,4,4,4,5,4,3,3,3,4,500,3,13,4,4,500,9,3,3,4,3,4,3,3,5,3,5,500,4,500,3,4,3,13,4,4,500,500,13,3,3,3,3,3,3,4,500,4,500,500];

periods = [100000,100000,20000,20000,20000,100000,20000,10000,10000,20000,10000,1000,10000,20000,100000,50000,10000,100000,100000,10000,20000,100000,20000,20000,100000,100000,10000,10000,10000,20000,10000,20000,100000,100000,10000,2000,20000,10000,100000,1000,20000,10000,10000,5000,20000,20000,20000,10000,5000,20000,10000,100000,10000,5000,100000,10000,100000,10000,20000,100000,20000,20000,2000,10000,1000,20000,20000,100000,100000,20000,20000,100000,100000,10000,20000,20000,20000,100000,20000,1000,20000,10000,20000,20000,100000,10000,100000,20000,20000,100000,20000,20000,10000,100000,20000,20000,10000,20000,10000,10000,100000,100000,20000,20000,20000,20000,100000,100000,100000,20000,20000,10000,10000,10000,10000,10000,1000,1000,1000,1000,10000,10000,10000,20000,20000,100000,50000,10000,100000,100000,100000,100000,100000,100000,10000,20000,20000,20000,20000,20000,20000,20000,20000,20000,20000,100000,100000,100000,100000,10000,10000,10000,20000,20000,20000,10000,10000,20000,20000,20000,100000,100000,100000,2000,2000,2000,20000,10000,10000,10000,100000,1000,1000,10000,5000,20000,20000,20000,20000,20000,20000,10000,10000,20000,20000,10000,100000,100000,100000,100000,10000,10000,5000,5000,10000,100000,10000,100000,100000,100000,20000,20000,2000,10000,10000,10000,10000,1000,20000,20000,20000,100000,100000,100000,20000,100000,100000,10000,20000,20000,20000,20000,20000,100000,100000,10000,10000,100000,100000,100000,20000,20000,20000,100000,100000,100000,20000,20000,20000,10000,10000,100000,100000,100000,100000,100000,100000,100000,100000,100000,100000,100000,100000,100000,100000,100000,100000,100000,100000,100000,100000,20000,20000,20000,20000,10000,10000,20000,20000,20000,20000,10000,10000,10000,10000,10000,10000,10000,10000,10000,10000,10000,10000,10000,10000,10000,10000,20000,20000,20000,20000,20000,20000,20000,20000,20000,20000,100000,100000,20000,20000,20000,20000,100000,100000,100000,20000,20000,10000,10000,10000,10000,10000,1000,1000,1000,1000,10000,10000,10000,20000,20000,100000,50000,10000,100000,100000,100000,100000,100000,100000,10000,20000,20000,20000,20000,20000,20000,20000,20000,20000,20000,100000,100000,100000,100000,10000,10000,10000,20000,20000,20000,10000,10000,20000,20000,20000,100000,100000,100000,2000,2000,2000,20000,10000,10000,10000,100000,1000,1000,10000,5000,20000,20000,20000,20000,20000,20000,10000,10000,20000,20000,10000,100000,100000,100000,100000,10000,10000,5000,5000,10000,100000,10000,100000,100000,100000,20000,20000,2000,10000,10000,10000,10000,1000,20000,20000,20000,100000,100000,100000,20000,100000,100000,10000,20000,20000,20000,20000,20000,100000,100000,10000,10000,100000,100000,100000,20000,20000,20000,100000,100000,100000,20000,20000,20000,10000,10000];

assignmentToClusters = [1,2,3,4,5,6,7,8,9,10,11,12,8,13,1,14,15,1,16,17,18,1,19,4,1,20,21,22,21,23,24,25,1,1,21,26,27,28,1,29,30,31,15,32,33,34,35,36,37,38,15,1,39,40,41,42,1,15,43,44,45,46,47,48,49,50,51,1,52,53,54,1,1,21,38,4,55,56,38,57,58,21,59,13,1,60,61,62,63,1,64,59,65,66,59,59,36,13,15,67,68,69,70,71,72,73,74,75,76,77,78,79,80,81,82,83,84,85,86,87,88,89,90,91,92,93,94,95,96,97,98,99,100,101,102,103,104,105,106,107,108,109,110,111,112,113,114,115,116,117,118,119,120,121,122,123,124,125,126,127,128,129,130,131,132,133,134,135,136,137,138,139,140,141,142,143,144,145,146,147,148,149,150,151,152,153,154,155,156,157,158,159,160,161,162,163,164,165,166,167,168,169,170,171,172,173,174,175,176,177,178,179,180,181,182,183,184,185,186,187,188,189,190,191,192,193,194,195,196,197,198,199,200,201,202,203,204,205,206,207,208,1,1,1,1,1,1,1,1,1,1,1,1,1,1,1,1,1,1,1,1,4,4,4,4,8,8,13,13,13,13,15,15,15,15,15,15,21,21,21,21,21,21,21,21,36,36,38,38,38,38,59,59,59,59,59,59,68,69,70,71,72,73,74,75,76,77,78,79,80,81,82,83,84,85,86,87,88,89,90,91,92,93,94,95,96,97,98,99,100,101,102,103,104,105,106,107,108,109,110,111,112,113,114,115,116,117,118,119,120,121,122,123,124,125,126,127,128,129,130,131,132,133,134,135,136,137,138,139,140,141,142,143,144,145,146,147,148,149,150,151,152,153,154,155,156,157,158,159,160,161,162,163,164,165,166,167,168,169,170,171,172,173,174,175,176,177,178,179,180,181,182,183,184,185,186,187,188,189,190,191,192,193,194,195,196,197,198,199,200,201,202,203,204,205,206,207,208];

precedenceAdjList = [[242],[],[],[262],[],[],[],[266],[],[],[],[],[],[],[260],[],[272],[32,244],[],[],[],[256],[],[],[],[],[278],[],[280],[],[],[],[84],[],[282],[],[],[],[71],[],[],[],[276],[],[],[],[],[286],[],[288],[],[258],[],[],[],[],[254],[],[],[],[],[],[],[],[],[],[],[],[],[],[],[250,252],[248],[],[290],[264],[],[],[],[],[],[284],[292],[268],[],[],[],[],[],[72,246],[],[296],[],[],[294],[],[],[270],[50,274],[],[],[],[],[],[],[],[],[],[],[],[],[],[],[],[],[],[],[],[],[],[],[],[],[],[],[],[],[],[],[],[],[],[],[],[],[],[],[],[],[],[],[],[],[],[],[],[],[],[],[],[],[],[],[],[],[],[],[],[],[],[],[],[],[],[],[],[],[],[],[],[],[],[],[],[],[],[],[],[],[],[],[],[],[],[],[],[],[],[],[],[],[],[],[],[],[],[],[],[],[],[],[],[],[],[],[],[],[],[],[],[],[],[],[],[],[],[],[],[],[],[],[],[],[],[],[],[],[],[],[],[],[],[],[],[],[],[],[],[],[],[],[17],[241],[89],[243],[71],[245],[33],[247],[67],[249],[24],[251],[38],[253],[89],[255],[17],[257],[51],[259],[23],[261],[3],[263],[12],[265],[13],[267],[83],[269],[98],[271],[42],[273],[57],[275],[28],[277],[73],[279],[26],[281],[34],[283],[96],[285],[74],[287],[78],[289],[94],[291],[91],[293],[95],[295],[100],[101],[102],[103],[104],[105],[106],[107],[108],[109],[110],[111],[112],[113],[114],[115],[116],[117],[118],[119],[120],[121],[122],[123],[124],[125],[126],[127],[128],[129],[130],[131],[132],[133],[134],[135],[136],[137],[138],[139],[140],[141],[142],[143],[144],[145],[146],[147],[148],[149],[150],[151],[152],[153],[154],[155],[156],[157],[158],[159],[160],[161],[162],[163],[164],[165],[166],[167],[168],[169],[170],[171],[172],[173],[174],[175],[176],[177],[178],[179],[180],[181],[182],[183],[184],[185],[186],[187],[188],[189],[190],[191],[192],[193],[194],[195],[196],[197],[198],[199],[200],[201],[202],[203],[204],[205],[206],[207],[208],[209],[210],[211],[212],[213],[214],[215],[216],[217],[218],[219],[220],[221],[222],[223],[224],[225],[226],[227],[228],[229],[230],[231],[232],[233],[234],[235],[236],[237],[238],[239],[240]];